c Created with the Wolfram Language : www.wolfram.com
c 
p edge 80 654
e 1 2
e 1 4
e 2 5
e 2 6
e 5 7
e 2 8
e 4 8
e 5 8
e 7 9
e 7 10
e 3 11
e 4 11
e 5 11
e 9 11
e 4 12
e 8 12
e 3 13
e 9 13
e 11 13
e 4 14
e 6 14
e 13 15
e 3 16
e 4 16
e 15 16
e 5 17
e 12 18
e 13 18
e 17 18
e 1 19
e 5 19
e 18 19
e 4 20
e 7 20
e 9 20
e 10 20
e 1 21
e 18 21
e 2 22
e 10 22
e 11 22
e 15 22
e 6 23
e 7 23
e 8 23
e 9 23
e 17 23
e 1 24
e 4 24
e 6 24
e 16 24
e 19 24
e 20 24
e 21 24
e 3 25
e 6 25
e 5 26
e 7 26
e 8 26
e 13 26
e 14 26
e 20 26
e 4 27
e 6 27
e 8 27
e 14 27
e 25 27
e 14 28
e 20 28
e 22 28
e 23 28
e 26 28
e 1 29
e 5 29
e 9 29
e 11 29
e 14 29
e 17 29
e 20 29
e 25 29
e 7 30
e 10 30
e 11 30
e 18 30
e 21 30
e 22 30
e 27 30
e 6 31
e 20 31
e 29 31
e 3 32
e 12 32
e 13 32
e 17 32
e 23 32
e 28 32
e 6 33
e 10 33
e 13 33
e 19 33
e 20 33
e 22 33
e 32 33
e 2 34
e 6 34
e 7 34
e 16 34
e 19 34
e 21 34
e 5 35
e 9 35
e 10 35
e 11 35
e 15 35
e 24 35
e 32 35
e 10 36
e 15 36
e 27 36
e 34 36
e 8 37
e 10 37
e 15 37
e 24 37
e 25 37
e 27 37
e 33 37
e 1 38
e 3 38
e 9 38
e 17 38
e 24 38
e 30 38
e 3 39
e 7 39
e 8 39
e 14 39
e 16 39
e 32 39
e 35 39
e 36 39
e 5 40
e 6 40
e 19 40
e 23 40
e 34 40
e 38 40
e 6 41
e 10 41
e 13 41
e 20 41
e 25 41
e 39 41
e 3 42
e 4 42
e 5 42
e 8 42
e 14 42
e 17 42
e 22 42
e 25 42
e 34 42
e 2 43
e 4 43
e 5 43
e 6 43
e 8 43
e 9 43
e 10 43
e 13 43
e 18 43
e 20 43
e 30 43
e 33 43
e 34 43
e 37 43
e 39 43
e 7 44
e 10 44
e 20 44
e 27 44
e 30 44
e 36 44
e 37 44
e 43 44
e 4 45
e 14 45
e 15 45
e 20 45
e 25 45
e 26 45
e 29 45
e 32 45
e 33 45
e 35 45
e 40 45
e 41 45
e 1 46
e 10 46
e 13 46
e 29 46
e 39 46
e 44 46
e 2 47
e 3 47
e 10 47
e 14 47
e 17 47
e 20 47
e 27 47
e 29 47
e 30 47
e 31 47
e 32 47
e 34 47
e 35 47
e 36 47
e 41 47
e 2 48
e 4 48
e 7 48
e 12 48
e 16 48
e 17 48
e 22 48
e 36 48
e 40 48
e 42 48
e 44 48
e 5 49
e 10 49
e 12 49
e 16 49
e 17 49
e 23 49
e 27 49
e 36 49
e 40 49
e 41 49
e 7 50
e 9 50
e 14 50
e 16 50
e 17 50
e 19 50
e 22 50
e 18 51
e 20 51
e 27 51
e 30 51
e 31 51
e 35 51
e 41 51
e 42 51
e 45 51
e 8 52
e 23 52
e 25 52
e 30 52
e 33 52
e 36 52
e 37 52
e 41 52
e 44 52
e 48 52
e 50 52
e 10 53
e 11 53
e 30 53
e 31 53
e 36 53
e 44 53
e 47 53
e 2 54
e 4 54
e 5 54
e 14 54
e 15 54
e 17 54
e 19 54
e 20 54
e 22 54
e 25 54
e 27 54
e 30 54
e 43 54
e 45 54
e 46 54
e 51 54
e 53 54
e 7 55
e 13 55
e 16 55
e 17 55
e 20 55
e 21 55
e 24 55
e 39 55
e 40 55
e 42 55
e 44 55
e 45 55
e 48 55
e 1 56
e 3 56
e 6 56
e 13 56
e 16 56
e 20 56
e 21 56
e 22 56
e 31 56
e 37 56
e 42 56
e 1 57
e 8 57
e 15 57
e 21 57
e 23 57
e 32 57
e 39 57
e 40 57
e 42 57
e 48 57
e 54 57
e 55 57
e 56 57
e 4 58
e 11 58
e 12 58
e 29 58
e 31 58
e 46 58
e 49 58
e 52 58
e 1 59
e 2 59
e 9 59
e 10 59
e 25 59
e 27 59
e 30 59
e 31 59
e 41 59
e 42 59
e 52 59
e 56 59
e 5 60
e 8 60
e 10 60
e 11 60
e 13 60
e 14 60
e 19 60
e 22 60
e 27 60
e 37 60
e 41 60
e 42 60
e 46 60
e 59 60
e 2 61
e 3 61
e 9 61
e 12 61
e 22 61
e 30 61
e 31 61
e 43 61
e 49 61
e 50 61
e 57 61
e 4 62
e 5 62
e 8 62
e 14 62
e 16 62
e 19 62
e 21 62
e 22 62
e 43 62
e 46 62
e 55 62
e 5 63
e 6 63
e 7 63
e 8 63
e 13 63
e 17 63
e 20 63
e 28 63
e 30 63
e 31 63
e 36 63
e 38 63
e 43 63
e 46 63
e 51 63
e 53 63
e 57 63
e 3 64
e 6 64
e 16 64
e 19 64
e 25 64
e 26 64
e 32 64
e 35 64
e 37 64
e 39 64
e 40 64
e 41 64
e 44 64
e 47 64
e 51 64
e 52 64
e 55 64
e 57 64
e 61 64
e 4 65
e 7 65
e 24 65
e 35 65
e 40 65
e 43 65
e 44 65
e 46 65
e 47 65
e 49 65
e 52 65
e 53 65
e 64 65
e 8 66
e 11 66
e 13 66
e 19 66
e 23 66
e 27 66
e 29 66
e 33 66
e 39 66
e 49 66
e 50 66
e 54 66
e 56 66
e 63 66
e 9 67
e 13 67
e 17 67
e 19 67
e 21 67
e 33 67
e 34 67
e 43 67
e 45 67
e 49 67
e 56 67
e 57 67
e 10 68
e 11 68
e 21 68
e 24 68
e 29 68
e 32 68
e 36 68
e 47 68
e 52 68
e 57 68
e 59 68
e 62 68
e 63 68
e 66 68
e 7 69
e 8 69
e 21 69
e 22 69
e 23 69
e 24 69
e 25 69
e 36 69
e 38 69
e 46 69
e 50 69
e 51 69
e 56 69
e 58 69
e 59 69
e 60 69
e 64 69
e 65 69
e 67 69
e 4 70
e 12 70
e 13 70
e 38 70
e 41 70
e 44 70
e 46 70
e 54 70
e 58 70
e 60 70
e 61 70
e 69 70
e 4 71
e 6 71
e 11 71
e 12 71
e 13 71
e 15 71
e 20 71
e 22 71
e 24 71
e 29 71
e 39 71
e 42 71
e 43 71
e 44 71
e 45 71
e 47 71
e 48 71
e 49 71
e 56 71
e 61 71
e 65 71
e 66 71
e 67 71
e 6 72
e 7 72
e 17 72
e 21 72
e 28 72
e 31 72
e 32 72
e 34 72
e 39 72
e 43 72
e 45 72
e 48 72
e 49 72
e 56 72
e 59 72
e 60 72
e 61 72
e 63 72
e 68 72
e 69 72
e 1 73
e 2 73
e 6 73
e 12 73
e 13 73
e 18 73
e 22 73
e 30 73
e 48 73
e 60 73
e 61 73
e 62 73
e 4 74
e 7 74
e 34 74
e 57 74
e 58 74
e 59 74
e 62 74
e 65 74
e 70 74
e 1 75
e 9 75
e 23 75
e 25 75
e 27 75
e 39 75
e 45 75
e 48 75
e 53 75
e 54 75
e 55 75
e 64 75
e 65 75
e 69 75
e 71 75
e 1 76
e 6 76
e 8 76
e 10 76
e 12 76
e 13 76
e 17 76
e 22 76
e 23 76
e 27 76
e 42 76
e 43 76
e 48 76
e 51 76
e 53 76
e 55 76
e 59 76
e 72 76
e 6 77
e 20 77
e 22 77
e 29 77
e 32 77
e 42 77
e 43 77
e 54 77
e 56 77
e 63 77
e 64 77
e 66 77
e 69 77
e 75 77
e 26 78
e 32 78
e 37 78
e 43 78
e 53 78
e 56 78
e 66 78
e 6 79
e 11 79
e 19 79
e 21 79
e 32 79
e 33 79
e 34 79
e 35 79
e 44 79
e 45 79
e 46 79
e 52 79
e 54 79
e 57 79
e 58 79
e 63 79
e 64 79
e 70 79
e 73 79
e 75 79
e 2 80
e 12 80
e 16 80
e 18 80
e 22 80
e 32 80
e 33 80
e 34 80
e 37 80
e 49 80
e 60 80
e 72 80
e 78 80
